(declare-fun temp106508_1 () (_ BitVec 64))
(declare-fun temp106508_2 () (_ BitVec 64))
(declare-fun var77740 () (_ BitVec 64))
(declare-fun k!0 () Bool)
(declare-fun ARGNAME_input_1_NAMEEND_DIM () (_ BitVec 64))
(declare-fun ARGNAME_data_format_NAMEEND_STRFMT () (_ BitVec 64))
(declare-fun temp106508_3 () (_ BitVec 64))
(declare-fun ARGNAME_input_2_NAMEEND_DIM () (_ BitVec 64))
(declare-fun var77770 () (_ BitVec 64))
(declare-fun temp106508_4 () (_ BitVec 64))
(declare-fun temp106508_5 () (_ BitVec 64))
(declare-fun ARGNAME_input_1_NAMEEND_DIMSIZE
             ()
             (Array (_ BitVec 64) (_ BitVec 64)))
(declare-fun temp106508_6 () (_ BitVec 64))
(declare-fun temp106508_7 () (_ BitVec 64))
(declare-fun temp106508_8 () (_ BitVec 64))
(declare-fun temp106508_9 () (_ BitVec 64))
(declare-fun temp106508_10 () (_ BitVec 64))
(declare-fun temp106508_11 () (_ BitVec 64))
(declare-fun temp106508_12 () (_ BitVec 64))
(declare-fun temp106508_13 () (_ BitVec 64))
(declare-fun temp106508_14 () (_ BitVec 64))
(declare-fun temp106508_15 () (_ BitVec 64))
(declare-fun temp106508_16 () (_ BitVec 64))
(declare-fun temp106508_17 () (_ BitVec 64))
(declare-fun temp106508_18 () (_ BitVec 64))
(declare-fun var77799 () (_ BitVec 64))
(declare-fun temp106508_19 () (_ BitVec 64))
(declare-fun ARGNAME_input_2_NAMEEND_DIMSIZE
             ()
             (Array (_ BitVec 64) (_ BitVec 64)))
(declare-fun temp106508_20 () (_ BitVec 64))
(declare-fun temp106508_21 () (_ BitVec 64))
(declare-fun temp106508_22 () (_ BitVec 64))
(declare-fun temp106508_23 () (_ BitVec 64))
(declare-fun temp106508_24 () (_ BitVec 64))
(declare-fun temp106508_25 () (_ BitVec 64))
(declare-fun temp106508_26 () (_ BitVec 64))
(declare-fun temp106508_27 () (_ BitVec 64))
(declare-fun temp106508_28 () (_ BitVec 64))
(declare-fun temp106508_29 () (_ BitVec 64))
(declare-fun temp106508_30 () (_ BitVec 64))
(declare-fun temp106508_31 () (_ BitVec 64))
(declare-fun temp106508_32 () (_ BitVec 64))
(declare-fun var77832 () (_ BitVec 64))
(declare-fun temp106508_33 () (_ BitVec 64))
(declare-fun temp106508_34 () (_ BitVec 64))
(declare-fun var77833 () (_ BitVec 64))
(declare-fun var77834 () (_ BitVec 64))
(declare-fun temp106508_35 () (_ BitVec 64))
(declare-fun temp106508_36 () (_ BitVec 64))
(declare-fun var275510 () (_ BitVec 64))
(declare-fun temp106508_37 () (_ BitVec 64))
(declare-fun var275528 () (_ BitVec 64))
(declare-fun temp106508_38 () (_ BitVec 64))
(declare-fun temp106508_39 () (_ BitVec 64))
(declare-fun var406582 () (_ BitVec 64))
(declare-fun temp106508_40 () (_ BitVec 64))
(declare-fun var406600 () (_ BitVec 64))
(declare-fun temp106508_41 () (_ BitVec 64))
(declare-fun temp106508_42 () (_ BitVec 64))
(declare-fun var537654 () (_ BitVec 64))
(declare-fun temp106508_43 () (_ BitVec 64))
(declare-fun var537672 () (_ BitVec 64))
(declare-fun temp106508_44 () (_ BitVec 64))
(declare-fun temp106508_46 () (_ BitVec 64))
(declare-fun temp106508_45 () (_ BitVec 64))
(declare-fun temp106508_48 () (_ BitVec 64))
(declare-fun temp106508_47 () (_ BitVec 64))
(declare-fun temp106508_50 () (_ BitVec 64))
(declare-fun temp106508_49 () (_ BitVec 64))
(declare-fun temp106508_52 () (_ BitVec 64))
(declare-fun temp106508_51 () (_ BitVec 64))
(declare-fun temp106508_54 () (_ BitVec 64))
(declare-fun temp106508_53 () (_ BitVec 64))
(declare-fun temp106508_55 () (_ BitVec 64))
(declare-fun var730187 () (_ BitVec 64))
(declare-fun var730166 () (_ BitVec 64))
(declare-fun var664598 () (_ BitVec 64))
(declare-fun temp106508_56 () (_ BitVec 64))
(declare-fun temp106508_57 () (_ BitVec 64))
(declare-fun var795723 () (_ BitVec 64))
(declare-fun var795702 () (_ BitVec 64))
(declare-fun var664608 () (_ BitVec 64))
(declare-fun temp106508_58 () (_ BitVec 64))
(declare-fun temp106508_59 () (_ BitVec 64))
(declare-fun var1057842 () (_ BitVec 64))
(declare-fun temp106508_60 () (_ BitVec 64))
(declare-fun var1123378 () (_ BitVec 64))
(declare-fun temp106508_61 () (_ BitVec 64))
(declare-fun var1188914 () (_ BitVec 64))
(declare-fun temp106508_63 () (_ BitVec 64))
(declare-fun temp106508_62 () (_ BitVec 64))
(declare-fun temp106508_65 () (_ BitVec 64))
(declare-fun temp106508_64 () (_ BitVec 64))
(assert (or (= ARGNAME_data_format_NAMEEND_STRFMT #x0000000000000000)
    (= ARGNAME_data_format_NAMEEND_STRFMT #x0000000000000001)
    (= ARGNAME_data_format_NAMEEND_STRFMT #x0000000000000002)
    (= ARGNAME_data_format_NAMEEND_STRFMT #x0000000000000003)
    (= ARGNAME_data_format_NAMEEND_STRFMT #x0000000000000004)
    (= ARGNAME_data_format_NAMEEND_STRFMT #x0000000000000005)))
(assert (= temp106508_1 #x0000000000000005))
(assert (= var77740
   (ite (= ARGNAME_input_1_NAMEEND_DIM temp106508_1)
        #x0000000000000001
        #x0000000000000000)))
(assert (= temp106508_2 #x0000000000000001))
(assert (= var77740 temp106508_2))
(assert (= temp106508_3 #x0000000000000005))
(assert (= var77770
   (ite (= ARGNAME_input_2_NAMEEND_DIM temp106508_3)
        #x0000000000000001
        #x0000000000000000)))
(assert (= temp106508_4 #x0000000000000001))
(assert (= var77770 temp106508_4))
(assert (= temp106508_5 #x0000000000000000))
(assert (= temp106508_6 (select ARGNAME_input_1_NAMEEND_DIMSIZE temp106508_5)))
(assert (= temp106508_7 #x0000000000000001))
(assert (= temp106508_8 (select ARGNAME_input_1_NAMEEND_DIMSIZE temp106508_7)))
(assert (= temp106508_9 #x0000000000000002))
(assert (= temp106508_10 (select ARGNAME_input_1_NAMEEND_DIMSIZE temp106508_9)))
(assert (= temp106508_11 #x0000000000000003))
(assert (= temp106508_12 (select ARGNAME_input_1_NAMEEND_DIMSIZE temp106508_11)))
(assert (= temp106508_13 #x0000000000000004))
(assert (= temp106508_14 (select ARGNAME_input_1_NAMEEND_DIMSIZE temp106508_13)))
(assert (= temp106508_15 #x0000000000000005))
(assert (= temp106508_16 (select ARGNAME_input_1_NAMEEND_DIMSIZE temp106508_15)))
(assert (= temp106508_17 #x0000000000000003))
(assert (= temp106508_18 (select ARGNAME_input_1_NAMEEND_DIMSIZE temp106508_17)))
(assert (= var77799 temp106508_18))
(assert (= temp106508_19 #x0000000000000000))
(assert (= temp106508_20 (select ARGNAME_input_2_NAMEEND_DIMSIZE temp106508_19)))
(assert (= temp106508_21 #x0000000000000001))
(assert (= temp106508_22 (select ARGNAME_input_2_NAMEEND_DIMSIZE temp106508_21)))
(assert (= temp106508_23 #x0000000000000002))
(assert (= temp106508_24 (select ARGNAME_input_2_NAMEEND_DIMSIZE temp106508_23)))
(assert (= temp106508_25 #x0000000000000003))
(assert (= temp106508_26 (select ARGNAME_input_2_NAMEEND_DIMSIZE temp106508_25)))
(assert (= temp106508_27 #x0000000000000004))
(assert (= temp106508_28 (select ARGNAME_input_2_NAMEEND_DIMSIZE temp106508_27)))
(assert (= temp106508_29 #x0000000000000005))
(assert (= temp106508_30 (select ARGNAME_input_2_NAMEEND_DIMSIZE temp106508_29)))
(assert (= temp106508_31 #x0000000000000004))
(assert (= temp106508_32 (select ARGNAME_input_2_NAMEEND_DIMSIZE temp106508_31)))
(assert (= var77832 temp106508_32))
(assert (= temp106508_33 #x0000000000000004))
(assert (= temp106508_34 (select ARGNAME_input_1_NAMEEND_DIMSIZE temp106508_33)))
(assert (= var77833 temp106508_34))
(assert (= var77834 (ite (= var77832 var77833) #x0000000000000001 #x0000000000000000)))
(assert (= temp106508_35 #x0000000000000001))
(assert (= var77834 temp106508_35))
(assert (= temp106508_36 #x0000000000000001))
(assert (= var275510 temp106508_36))
(assert (= temp106508_37 #x0000000000000001))
(assert (= var275528
   (ite (bvslt var275510 temp106508_37) #x0000000000000001 #x0000000000000000)))
(assert (= temp106508_38 #x0000000000000000))
(assert (= var275528 temp106508_38))
(assert (= temp106508_39 #x0000000000000001))
(assert (= var406582 temp106508_39))
(assert (= temp106508_40 #x0000000000000001))
(assert (= var406600
   (ite (bvslt var406582 temp106508_40) #x0000000000000001 #x0000000000000000)))
(assert (= temp106508_41 #x0000000000000000))
(assert (= var406600 temp106508_41))
(assert (= temp106508_42 #x0000000000000001))
(assert (= var537654 temp106508_42))
(assert (= temp106508_43 #x0000000000000001))
(assert (= var537672
   (ite (bvslt var537654 temp106508_43) #x0000000000000001 #x0000000000000000)))
(assert (= temp106508_44 #x0000000000000000))
(assert (= var537672 temp106508_44))
(assert (= temp106508_46 #x0000000000000000))
(assert (= temp106508_45 temp106508_46))
(assert (= temp106508_48 #x0000000000000000))
(assert (= temp106508_47 temp106508_48))
(assert (= temp106508_50 #x00000000000000ff))
(assert (= temp106508_49 temp106508_50))
(assert (= temp106508_52 #x00000000000000ff))
(assert (= temp106508_51 temp106508_52))
(assert (= temp106508_54 #x00000000000000ff))
(assert (= temp106508_53 temp106508_54))
(assert (= temp106508_55 #x0000000000000000))
(assert (= var730187 temp106508_55))
(assert (= var730166 var730187))
(assert (= var664598 var730166))
(assert (= temp106508_56 #x0000000000000000))
(assert (= var664598 temp106508_56))
(assert (= temp106508_57 #x0000000000000000))
(assert (= var795723 temp106508_57))
(assert (= var795702 var795723))
(assert (= var664608 var795702))
(assert (= temp106508_58 #x0000000000000000))
(assert (= var664608 temp106508_58))
(assert (= temp106508_59 #x0000000000008000))
(assert (= var1057842 temp106508_59))
(assert (= temp106508_60 #x0000000000040000))
(assert (= var1123378 temp106508_60))
(assert (= temp106508_61 #x0000000000200000))
(assert (= var1188914 temp106508_61))
(assert (= temp106508_63 #x0000000000000001))
(assert (= temp106508_62 temp106508_63))
(assert (= temp106508_65 #x0000000000000001))
(assert (= temp106508_64 temp106508_65))
(model-add temp106508_1 () (_ BitVec 64) #x0000000000000005)
(model-add temp106508_2 () (_ BitVec 64) #x0000000000000001)
(model-add var77740 () (_ BitVec 64) #x0000000000000001)
(model-del k!0)
(model-add ARGNAME_input_1_NAMEEND_DIM
           ()
           (_ BitVec 64)
           (ite k!0 #x0000000000000005 (bvnot #x0000000000000005)))

